\* Problem: Unknown *\

Maximize
 obj: 980 r1_volGoal + 20 r2_volGoal + 30 r3_volGoal + 970 j3_d3 + 980 j2_d2 + 990 j2_d1 
 + 15 v1_d5 + 10 v2_d4 - r1_v1 - r2_v2 - r3_v3

Subject To

r1: r1_j1 + r1_volGoal + r1_v1 <= 150
r2: r1_volGoal = 100

r3: - j3_r2 + r2_volGoal + r2_v2 <= 5
r4: r2_volGoal = 5

r13: r3_j1 + r3_volGoal + r3_v3 <= 5
r14: r3_volGoal = 0

r5: - 0.3 r1_j1 - v1_j1 - 0.6 r3_j1 - v3_j1 + j1_j2 + j1_j3 = 0
r6: - 0.5 j1_j2 + j2_d1 + j2_d2 = 0
r7: - 0.5 j1_j3 + j3_d3 + j3_r2 = 0

r8: j2_d1 = 10
r9: j2_d2 = 10
r10: j3_d3 = 7.5

r11: v2_d4 = 0
r12: v1_d5 = 0
r15: v3_d6 <= 0

\* Vertimento *\
r21: - r1_v1 + v1_j1 + v1_d5 = 0
r22: - r2_v2 + v2_d4 = 0
r23: - r3_v3 + v3_j1 + v3_d6 = 0

Bounds
0 <= r1_j1 <= 100
0 <= r1_v1 <= 99999
0 <= r3_j1 <= 100
0 <= r3_v3 <= 99999
0 <= r2_v2 <= 99999

End
